137 102 189 16 126 13 141 1 29 18 99 2 92 132 139 68 125 145 22 134 165 163 118 143 135 87 27 130 115 149 186 103 75 129 90 52 54 100 133 151 155 83 131 185 7 190 97 124 101 9 63 53 195 161 66 55 150 60 111 174 175 38 157 122 24 5 147 94 19 112 191 40 61 169 41 196 127 93 45 113 117 153 70 50 36 144 32 6 49 31 110 77 198 30 72 176 171 192 69 89 120 51 158 179 28 88 104 35 82 81 21 73 193 138 71 160 123 162 34 48 178 167 4 108 20 177 91 62 23 136 37 42 140 76 121 0 116 46 64 44 188 152 172 65 8 3 199 187 39 142 159 184 79 109 119 180 166 96 78 168 47 43 105 86 25 33 170 173 67 84 56 59 14 12 58 26 146 194 154 183 148 107 15 181 182 74 57 106 164 85 17 95 156 98 80 197 114 11 10 128